(set-logic QF_NRA)
(declare-fun skoY () Real)
(declare-fun skoX () Real)
(declare-fun skoZ () Real)
(assert (and (not (<= (+ (* (- 6435) (* skoY skoX)) (* 12012 (* skoY skoY)) (* (- 12012) (* skoY skoY skoY skoX)) (* 6930 (* skoY skoY skoY skoY)) (* (- 6930) (* skoY skoY skoY skoY skoY skoX)) (* 1260 (* skoY skoY skoY skoY skoY skoY)) (* (- 1260) (* skoY skoY skoY skoY skoY skoY skoY skoX)) (* 35 (* skoY skoY skoY skoY skoY skoY skoY skoY)) (* (- 35) (* skoY skoY skoY skoY skoY skoY skoY skoY skoY skoX))) (- 6435))) (and (not (<= (* (- 1) skoY) 0)) (and (not (<= (* (- 1) skoX) 0)) (and (not (<= skoZ 0)) (and (not (<= skoX (- 1))) (and (not (<= (* (- 1) skoY) (- 1))) (not (<= (+ skoY (* (- 1) skoX)) 0)))))))))
(set-info :status sat)
(check-sat)
